(set-logic QF_LIA)
(declare-fun x0 () Int)
(declare-fun x1 () Int)
(declare-fun x2 () Int)
(declare-fun x3 () Int)
(declare-fun x4 () Int)
(declare-fun x5 () Int)
(declare-fun x6 () Int)
(declare-fun x7 () Int)
(declare-fun x8 () Int)
(declare-fun x9 () Int)
(declare-fun A0 () Bool)
(declare-fun A1 () Bool)
(declare-fun A2 () Bool)
(declare-fun A3 () Bool)
(declare-fun A4 () Bool)
(declare-fun A6 () Bool)
(declare-fun A7 () Bool)
(declare-fun A8 () Bool)
(assert (let ((.def_0 (* 1 x7))) (let ((.def_1 (* 1 x0))) (let ((.def_2 (+ .def_1 .def_0))) (let ((.def_3 (< .def_2 1))) (let ((.def_4 (* (- 1) x1))) (let ((.def_5 (+ .def_1 .def_4))) (let ((.def_6 (< .def_5 1))) (let ((.def_7 (not .def_6))) (let ((.def_8 (or .def_7 .def_3))) (let ((.def_9 (* 1 x2))) (let ((.def_10 (* (- 1) x7))) (let ((.def_11 (+ .def_10 .def_9))) (let ((.def_12 (< .def_11 (- 1)))) (let ((.def_13 (or .def_12 A4))) (let ((.def_14 (or .def_13 .def_8))) (let ((.def_15 (not A8))) (let ((.def_16 (not A7))) (let ((.def_17 (or .def_16 .def_15))) (let ((.def_18 (and A3 A2))) (let ((.def_19 (or .def_18 .def_17))) (let ((.def_20 (and .def_19 .def_14))) (let ((.def_21 (< .def_9 1))) (let ((.def_22 (not .def_21))) (let ((.def_23 (not A6))) (let ((.def_24 (and .def_23 .def_22))) (let ((.def_25 (not .def_24))) (let ((.def_26 (not A0))) (let ((.def_27 (* 1 x3))) (let ((.def_28 (* (- 1) x6))) (let ((.def_29 (+ .def_28 .def_27))) (let ((.def_30 (< .def_29 (- 1)))) (let ((.def_31 (not .def_30))) (let ((.def_32 (and .def_31 .def_26))) (let ((.def_33 (not .def_32))) (let ((.def_34 (and .def_33 .def_25))) (let ((.def_35 (* 1 x4))) (let ((.def_36 (* (- 1) x2))) (let ((.def_37 (+ .def_36 .def_35))) (let ((.def_38 (< .def_37 (- 1)))) (let ((.def_39 (not .def_38))) (let ((.def_40 (not A1))) (let ((.def_41 (or .def_40 .def_39))) (let ((.def_42 (not .def_41))) (let ((.def_43 (+ .def_28 .def_1))) (let ((.def_44 (< .def_43 (- 1)))) (let ((.def_45 (and .def_40 .def_44))) (let ((.def_46 (= .def_45 .def_42))) (let ((.def_47 (not .def_46))) (let ((.def_48 (= .def_47 .def_34))) (let ((.def_49 (or .def_48 .def_20))) (let ((.def_50 (<= x9 1))) (let ((.def_51 (<= 0 x9))) (let ((.def_52 (<= x8 1))) (let ((.def_53 (<= 0 x8))) (let ((.def_54 (<= x7 1))) (let ((.def_55 (<= 0 x7))) (let ((.def_56 (<= x6 1))) (let ((.def_57 (<= 0 x6))) (let ((.def_58 (<= x5 1))) (let ((.def_59 (<= 0 x5))) (let ((.def_60 (<= x4 1))) (let ((.def_61 (<= 0 x4))) (let ((.def_62 (<= x3 1))) (let ((.def_63 (<= 0 x3))) (let ((.def_64 (<= x2 1))) (let ((.def_65 (<= 0 x2))) (let ((.def_66 (<= x1 1))) (let ((.def_67 (<= 0 x1))) (let ((.def_68 (<= x0 1))) (let ((.def_69 (<= 0 x0))) (let ((.def_70 (and .def_69 .def_68 .def_67 .def_66 .def_65 .def_64 .def_63 .def_62 .def_61 .def_60 .def_59 .def_58 .def_57 .def_56 .def_55 .def_54 .def_53 .def_52 .def_51 .def_50 .def_49))) .def_70))))))))))))))))))))))))))))))))))))))))))))))))))))))))))))))))))))))))
(check-sat)
